1 -1 2 0
1 -2 -3 0
1 2 -1 0
1 -4 5 0
1 -6 -7 0
1 8 9 0
1 -8 10 0
1 -8 1 0
1 -11 1 0
1 -3 -12 0
1 -3 4 0
1 10 13 0
1 -14 15 0
1 16 8 0
1 17 -18 0
1 -17 19 0
1 5 -20 0
1 5 -21 0
1 5 -6 0
1 5 22 0
1 -5 -10 0
1 -5 -4 0
1 -5 23 0
1 24 10 0
1 13 15 0
1 13 -25 0
1 -13 17 0
1 -13 -26 0
1 13 27 0
1 13 4 0
1 15 28 0
1 -15 -17 0
1 -15 -14 0
1 -29 -21 0
1 -29 5 0
1 21 -28 0
1 -21 30 0
1 -21 -5 0
1 -31 19 0
1 20 -31 0
1 -20 -5 0
1 -20 32 0
1 -19 -20 0
1 19 -21 0
1 -19 -16 0
1 -19 -33 0
1 -30 -34 0
1 30 -29 0
1 30 16 0
1 -32 20 0
1 -32 17 0
1 32 35 0
1 -32 33 0
1 -18 -17 0
1 18 -32 0
1 36 37 0
1 38 -39 0
1 -40 -37 0
1 -41 -42 0
1 -41 43 0
1 -41 36 0
1 42 44 0
1 42 -36 0
1 -12 45 0
1 -12 -46 0
1 12 -39 0
1 12 -10 0
1 45 40 0
1 -45 47 0
1 45 -48 0
1 -45 -49 0
1 45 -46 0
1 45 50 0
1 -51 -52 0
1 51 39 0
1 51 -53 0
1 54 -39 0
1 -54 -55 0
1 54 -3 0
1 -54 -53 0
1 48 56 0
1 -48 -39 0
1 -48 54 0
1 -39 9 0
1 39 51 0
1 -47 -57 0
1 47 -50 0
1 50 58 0
1 9 -15 0
1 -9 3 0
1 9 -13 0
1 9 59 0
1 -28 8 0
1 -28 9 0
1 -28 -53 0
1 -28 -11 0
1 -60 52 0
1 -60 53 0
1 25 -15 0
1 52 -26 0
1 -52 -60 0
1 -52 -9 0
1 52 -51 0
1 61 60 0
1 61 9 0
1 -61 62 0
1 -63 9 0
1 53 56 0
1 -53 60 0
1 53 -62 0
1 -26 -24 0
1 -26 64 0
1 26 -61 0
1 26 -23 0
1 -65 61 0
1 -66 52 0
1 66 -67 0
1 67 -25 0
1 -67 68 0
1 67 26 0
1 -67 -69 0
1 67 -23 0
1 70 60 0
1 70 -23 0
1 71 25 0
1 71 -72 0
1 -71 -73 0
1 -71 -3 0
1 -71 26 0
1 74 -75 0
1 74 -71 0
1 -74 7 0
1 74 76 0
1 -74 77 0
1 -74 -62 0
1 -78 -79 0
1 -78 -27 0
1 78 33 0
1 33 -79 0
1 -33 -27 0
1 -68 -69 0
1 -69 79 0
1 22 80 0
1 -22 5 0
1 22 66 0
1 -79 -68 0
1 -79 81 0
1 -27 78 0
1 27 -82 0
1 27 -76 0
1 27 -33 0
1 83 84 0
1 -83 65 0
1 80 -79 0
1 80 34 0
1 -85 86 0
1 85 22 0
1 85 -87 0
1 -85 35 0
1 -88 34 0
1 88 -81 0
1 -34 -30 0
1 34 81 0
1 34 88 0
1 35 68 0
1 35 32 0
1 86 -18 0
1 86 85 0
1 89 90 0
1 -91 -92 0
1 91 -93 0
1 -90 94 0
1 90 -49 0
1 -90 -89 0
1 95 43 0
1 95 96 0
1 97 -98 0
1 -97 -99 0
1 -97 -96 0
1 97 89 0
1 -100 91 0
1 -100 89 0
1 43 -49 0
1 -49 -101 0
1 -44 102 0
1 -44 -41 0
1 -44 -103 0
1 44 104 0
1 -55 41 0
1 -93 105 0
1 -93 49 0
1 93 92 0
1 92 -105 0
1 -92 106 0
1 -92 -107 0
1 92 44 0
1 92 43 0
1 -108 -44 0
1 -108 43 0
1 -103 94 0
1 103 96 0
1 59 -109 0
1 59 47 0
1 59 46 0
1 59 9 0
1 109 -94 0
1 109 -93 0
1 109 -110 0
1 -107 92 0
1 107 -111 0
1 -107 60 0
1 107 -110 0
1 105 112 0
1 105 -113 0
1 -105 107 0
1 -105 -50 0
1 105 -114 0
1 105 -110 0
1 102 -56 0
1 102 -115 0
1 102 -64 0
1 111 105 0
1 111 116 0
1 111 -117 0
1 -111 59 0
1 -110 109 0
1 -118 -55 0
1 118 119 0
1 -118 -106 0
1 -118 -120 0
1 118 110 0
1 -118 121 0
1 -64 -122 0
1 -64 50 0
1 64 53 0
1 -56 -112 0
1 56 123 0
1 -56 47 0
1 56 -48 0
1 56 -39 0
1 56 53 0
1 56 23 0
1 116 -123 0
1 116 -65 0
1 116 -111 0
1 -116 -124 0
1 -124 -114 0
1 124 -66 0
1 123 -107 0
1 114 -73 0
1 114 -46 0
1 -114 125 0
1 -112 56 0
1 -112 -41 0
1 -112 126 0
1 -112 -116 0
1 112 -127 0
1 122 105 0
1 -122 128 0
1 122 -107 0
1 -122 125 0
1 73 123 0
1 -73 78 0
1 -73 -52 0
1 -62 -53 0
1 -75 129 0
1 75 77 0
1 -130 -131 0
1 -130 -124 0
1 -132 116 0
1 -132 -133 0
1 -57 47 0
1 57 -126 0
1 57 -75 0
1 -57 -125 0
1 -57 77 0
1 58 -134 0
1 -58 57 0
1 58 135 0
1 -72 129 0
1 72 27 0
1 76 70 0
1 -76 67 0
1 136 -80 0
1 136 137 0
1 -136 -27 0
1 -136 -138 0
1 87 -137 0
1 -87 -139 0
1 129 87 0
1 129 77 0
1 138 -136 0
1 138 -140 0
1 138 -141 0
1 142 -72 0
1 142 -75 0
1 -142 -143 0
1 142 87 0
1 -142 77 0
1 -144 142 0
1 84 86 0
1 84 -145 0
1 -84 22 0
1 84 139 0
1 -82 -84 0
1 -82 27 0
1 -82 146 0
1 82 -138 0
1 147 -148 0
1 -147 -86 0
1 -147 129 0
1 -140 -148 0
1 140 35 0
1 145 136 0
1 145 140 0
1 -145 67 0
1 -145 87 0
1 149 -70 0
1 -149 84 0
1 -149 -150 0
1 149 151 0
1 137 136 0
1 137 140 0
1 137 152 0
1 139 -150 0
1 139 153 0
1 139 -154 0
1 -155 -149 0
1 -155 -156 0
1 155 -148 0
1 -155 34 0
1 -155 -151 0
1 -155 -157 0
1 -151 -149 0
1 158 149 0
1 158 159 0
1 158 160 0
1 161 -156 0
1 -161 159 0
1 162 163 0
1 148 164 0
1 148 -151 0
1 148 165 0
1 -157 166 0
1 -157 -158 0
1 156 155 0
1 -156 166 0
1 -165 162 0
1 167 -168 0
1 -167 162 0
1 -167 -169 0
1 170 -168 0
1 170 -159 0
1 170 -167 0
1 -168 160 0
1 -168 34 0
1 -168 167 0
1 -168 158 0
1 -159 171 0
1 159 -170 0
1 -159 172 0
1 -171 -86 0
1 -171 166 0
1 -171 -170 0
1 171 -161 0
1 171 -173 0
1 171 174 0
1 -175 176 0
1 -175 -177 0
1 175 89 0
1 177 -176 0
1 177 -175 0
1 178 -176 0
1 178 -179 0
1 -180 179 0
1 -181 104 0
1 -181 -179 0
1 -179 -177 0
1 179 -104 0
1 176 -178 0
1 182 180 0
1 -182 -183 0
1 -182 -178 0
1 -182 -175 0
1 -184 -101 0
1 -184 185 0
1 184 -186 0
1 101 -100 0
1 101 -49 0
1 -101 -184 0
1 101 -187 0
1 -104 188 0
1 104 181 0
1 -104 -97 0
1 -104 -179 0
1 -188 -55 0
1 -188 -185 0
1 -185 188 0
1 -185 180 0
1 185 -104 0
1 185 178 0
1 187 189 0
1 187 190 0
1 187 188 0
1 191 186 0
1 191 -101 0
1 -191 104 0
1 191 -184 0
1 -191 -178 0
1 186 101 0
1 186 192 0
1 193 94 0
1 193 185 0
1 -94 194 0
1 195 196 0
1 195 -197 0
1 195 -194 0
1 195 198 0
1 -113 199 0
1 -113 -195 0
1 200 -201 0
1 200 202 0
1 -200 -195 0
1 200 -193 0
1 194 -203 0
1 194 -193 0
1 -194 204 0
1 196 -205 0
1 196 -190 0
1 -196 206 0
1 106 -200 0
1 106 207 0
1 -106 -110 0
1 201 -106 0
1 -201 207 0
1 -201 -98 0
1 201 -93 0
1 201 110 0
1 -119 118 0
1 -119 116 0
1 -119 98 0
1 119 -208 0
1 119 -209 0
1 -119 -121 0
1 121 205 0
1 121 197 0
1 121 -210 0
1 -121 118 0
1 121 -119 0
1 -198 211 0
1 -198 -121 0
1 -197 95 0
1 197 211 0
1 197 -212 0
1 -197 213 0
1 197 120 0
1 -98 201 0
1 -98 -214 0
1 -98 -215 0
1 -199 -216 0
1 -199 98 0
1 -212 -118 0
1 -212 198 0
1 120 -210 0
1 -120 118 0
1 -120 204 0
1 211 -115 0
1 211 112 0
1 -211 -217 0
1 -211 127 0
1 127 -218 0
1 127 -211 0
1 -127 210 0
1 -127 209 0
1 -209 211 0
1 -209 219 0
1 -210 -220 0
1 -210 119 0
1 -208 211 0
1 -208 -221 0
1 218 222 0
1 126 -117 0
1 -125 -217 0
1 -125 -213 0
1 -135 217 0
1 -223 -224 0
1 -223 -117 0
1 223 -128 0
1 -115 -225 0
1 115 -146 0
1 -117 -225 0
1 117 134 0
1 -117 211 0
1 117 -111 0
1 -117 226 0
1 -227 -228 0
1 227 211 0
1 227 219 0
1 217 220 0
1 -217 135 0
1 -134 -220 0
1 134 229 0
1 -134 -58 0
1 -146 224 0
1 -230 115 0
1 -230 -231 0
1 230 232 0
1 226 -230 0
1 226 -233 0
1 226 -131 0
1 226 -144 0
1 -224 230 0
1 224 -234 0
1 224 135 0
1 224 -235 0
1 -229 235 0
1 -229 236 0
1 229 146 0
1 -229 -223 0
1 229 154 0
1 237 -238 0
1 -237 230 0
1 -237 112 0
1 237 -134 0
1 -237 -239 0
1 -128 146 0
1 240 -155 0
1 -240 233 0
1 240 -131 0
1 143 224 0
1 143 133 0
1 -154 224 0
1 -154 131 0
1 -154 -241 0
1 -236 242 0
1 -236 -243 0
1 -236 -133 0
1 -131 133 0
1 131 244 0
1 131 236 0
1 -131 -226 0
1 133 -230 0
1 -133 169 0
1 233 -240 0
1 -232 245 0
1 -232 233 0
1 -153 131 0
1 153 -243 0
1 -150 156 0
1 150 -153 0
1 169 131 0
1 -169 246 0
1 244 -247 0
1 244 152 0
1 243 244 0
1 -243 150 0
1 -141 -244 0
1 141 -150 0
1 -141 243 0
1 141 163 0
1 141 248 0
1 -242 142 0
1 -242 241 0
1 -241 249 0
1 163 -156 0
1 -163 166 0
1 163 -162 0
1 -163 159 0
1 -174 247 0
1 -250 -251 0
1 -250 -171 0
1 -250 -152 0
1 -246 -252 0
1 246 -166 0
1 246 244 0
1 246 -163 0
1 -253 -254 0
1 -253 -250 0
1 -247 -255 0
1 -247 -169 0
1 -173 -256 0
1 173 -171 0
1 -173 246 0
1 173 -257 0
1 173 159 0
1 173 -160 0
1 256 -249 0
1 256 -164 0
1 -256 -173 0
1 258 -251 0
1 -258 -164 0
1 -258 -257 0
1 -254 257 0
1 257 254 0
1 -257 259 0
1 -257 162 0
1 -164 254 0
1 164 256 0
1 260 254 0
1 -260 -256 0
1 260 -261 0
1 251 -261 0
1 251 173 0
1 259 262 0
1 263 -164 0
1 -264 265 0
1 265 -262 0
1 265 -257 0
1 265 266 0
1 266 -160 0
1 266 263 0
1 267 -168 0
1 -267 -258 0
1 268 262 0
1 262 -259 0
1 262 -263 0
1 -269 191 0
1 -269 185 0
1 190 270 0
1 190 -183 0
1 -206 205 0
1 -206 196 0
1 -206 -271 0
1 -206 -270 0
1 -206 119 0
1 205 -189 0
1 -205 206 0
1 -270 272 0
1 270 -206 0
1 270 215 0
1 273 205 0
1 -273 -214 0
1 273 204 0
1 271 176 0
1 -271 -206 0
1 -183 271 0
1 -183 -274 0
1 183 206 0
1 202 -200 0
1 -202 273 0
1 -204 200 0
1 204 275 0
1 204 -207 0
1 -204 120 0
1 -214 -276 0
1 -214 -203 0
1 215 199 0
1 215 98 0
1 -277 205 0
1 -277 -278 0
1 -277 214 0
1 277 202 0
1 -277 213 0
1 -277 -215 0
1 -189 279 0
1 -275 -278 0
1 -275 202 0
1 -275 -206 0
1 275 -279 0
1 -192 -205 0
1 -192 204 0
1 -216 203 0
1 -213 276 0
1 -213 280 0
1 213 216 0
1 213 277 0
1 281 -276 0
1 -281 280 0
1 281 282 0
1 222 -283 0
1 -284 -231 0
1 -284 -280 0
1 284 -220 0
1 280 -231 0
1 -280 219 0
1 280 -284 0
1 -203 -285 0
1 203 -286 0
1 203 -213 0
1 -276 -287 0
1 276 279 0
1 220 -219 0
1 220 208 0
1 -219 -220 0
1 -219 -218 0
1 -219 210 0
1 219 -146 0
1 -219 -284 0
1 219 288 0
1 -231 289 0
1 231 282 0
1 -289 -280 0
1 289 -290 0
1 -289 -226 0
1 289 291 0
1 -289 292 0
1 288 281 0
1 -288 293 0
1 -288 198 0
1 290 -220 0
1 -290 293 0
1 -290 -239 0
1 290 289 0
1 -290 294 0
1 282 281 0
1 -282 -295 0
1 -282 -98 0
1 282 296 0
1 283 231 0
1 -283 -282 0
1 -283 199 0
1 -283 289 0
1 -225 -115 0
1 225 297 0
1 225 -290 0
1 239 115 0
1 -239 143 0
1 -239 285 0
1 -238 298 0
1 -238 299 0
1 -238 -221 0
1 -293 -300 0
1 -293 237 0
1 -293 290 0
1 293 301 0
1 293 236 0
1 293 302 0
1 -292 225 0
1 292 303 0
1 -299 -304 0
1 299 293 0
1 299 289 0
1 221 -301 0
1 221 -289 0
1 -221 294 0
1 301 -293 0
1 -301 -305 0
1 235 -300 0
1 306 300 0
1 306 304 0
1 -306 -302 0
1 306 -307 0
1 306 -232 0
1 306 169 0
1 304 -234 0
1 -304 233 0
1 304 -299 0
1 304 308 0
1 304 -302 0
1 -300 309 0
1 302 -238 0
1 -302 310 0
1 302 -235 0
1 302 311 0
1 -302 -309 0
1 -228 304 0
1 -228 -235 0
1 228 312 0
1 228 -227 0
1 308 310 0
1 -308 304 0
1 -313 -245 0
1 245 -300 0
1 245 303 0
1 -245 -131 0
1 -245 302 0
1 -245 307 0
1 -245 -232 0
1 -314 234 0
1 -314 -315 0
1 314 316 0
1 -307 317 0
1 -307 -255 0
1 318 -319 0
1 318 -314 0
1 -320 321 0
1 320 -314 0
1 320 313 0
1 -322 -243 0
1 -322 173 0
1 -322 316 0
1 -255 -317 0
1 -255 -323 0
1 317 -255 0
1 317 -248 0
1 -315 -324 0
1 315 -255 0
1 315 322 0
1 -315 -325 0
1 326 322 0
1 326 327 0
1 -316 -326 0
1 316 -255 0
1 324 251 0
1 324 259 0
1 324 -152 0
1 -324 315 0
1 252 -152 0
1 252 -260 0
1 -261 -251 0
1 323 -324 0
1 -323 -248 0
1 -323 -325 0
1 248 317 0
1 -328 -317 0
1 328 -242 0
1 -328 261 0
1 -328 -324 0
1 -328 329 0
1 329 317 0
1 -329 324 0
1 -278 189 0
1 -278 -272 0
1 -278 -203 0
1 -287 -291 0
1 -291 -330 0
1 291 276 0
1 -291 331 0
1 291 272 0
1 291 -332 0
1 -272 -270 0
1 272 333 0
1 -332 285 0
1 332 -334 0
1 331 287 0
1 331 335 0
1 -331 279 0
1 274 287 0
1 -274 -183 0
1 -297 -330 0
1 -297 225 0
1 -297 -280 0
1 -297 -282 0
1 285 -330 0
1 285 280 0
1 -285 282 0
1 -285 -332 0
1 298 -332 0
1 -336 -282 0
1 337 298 0
1 337 -338 0
1 -337 336 0
1 -337 339 0
1 330 -298 0
1 330 291 0
1 330 -340 0
1 341 275 0
1 341 -340 0
1 -342 298 0
1 342 -343 0
1 342 338 0
1 -342 291 0
1 -295 283 0
1 -305 -344 0
1 -305 345 0
1 -305 301 0
1 305 -346 0
1 -305 286 0
1 -305 -296 0
1 -305 -221 0
1 -346 221 0
1 347 303 0
1 -347 348 0
1 286 -298 0
1 -286 295 0
1 286 340 0
1 -286 -305 0
1 -349 350 0
1 349 346 0
1 -349 286 0
1 349 -340 0
1 -349 294 0
1 -348 301 0
1 -348 -351 0
1 348 221 0
1 348 -292 0
1 -303 245 0
1 303 -299 0
1 303 348 0
1 312 -347 0
1 312 296 0
1 -312 308 0
1 352 353 0
1 352 -354 0
1 352 312 0
1 -352 355 0
1 352 356 0
1 -351 -357 0
1 -351 -352 0
1 -351 358 0
1 351 312 0
1 351 305 0
1 345 310 0
1 345 -351 0
1 -345 -305 0
1 -296 -359 0
1 -309 -318 0
1 -309 320 0
1 -310 228 0
1 319 -318 0
1 319 345 0
1 -319 353 0
1 319 360 0
1 -319 -355 0
1 -361 -362 0
1 -361 -353 0
1 361 319 0
1 -356 -310 0
1 -356 363 0
1 -356 -309 0
1 -356 312 0
1 364 321 0
1 364 -356 0
1 -364 -299 0
1 -364 -312 0
1 355 310 0
1 355 -352 0
1 -355 -358 0
1 -355 -309 0
1 -355 -221 0
1 365 -362 0
1 365 326 0
1 -365 -356 0
1 321 -364 0
1 -321 316 0
1 -363 -261 0
1 -363 327 0
1 327 -311 0
1 311 -362 0
1 -311 -319 0
1 -366 -327 0
1 -360 365 0
1 360 319 0
1 -340 -330 0
1 -340 341 0
1 338 -333 0
1 338 340 0
1 367 333 0
1 367 -286 0
1 -367 -368 0
1 350 -339 0
1 -350 -368 0
1 333 -369 0
1 334 370 0
1 -335 338 0
1 -359 344 0
1 -369 371 0
1 372 -373 0
1 372 -339 0
1 -372 -374 0
1 370 373 0
1 -370 361 0
1 -370 -375 0
1 339 357 0
1 339 -373 0
1 -339 -350 0
1 339 -367 0
1 373 -370 0
1 373 -372 0
1 373 -359 0
1 -371 -369 0
1 343 -350 0
1 -343 371 0
1 -343 359 0
1 -357 -376 0
1 357 -358 0
1 357 -374 0
1 -377 378 0
1 -377 374 0
1 -374 -358 0
1 378 -379 0
1 -378 -372 0
1 375 -286 0
1 -376 357 0
1 -376 -349 0
1 376 379 0
1 -376 372 0
